p wcnf 169 254 255 
1 72 115 0 
1 108 145 0 
1 -83 -116 0 
1 -3 143 0 
1 -67 47 0 
1 -126 144 0 
1 66 -49 0 
1 41 103 0 
1 -14 9 0 
1 -110 47 0 
1 -6 157 0 
1 138 50 0 
1 -50 134 0 
1 24 120 0 
1 115 9 0 
1 8 -86 0 
1 -54 -95 0 
1 -83 -14 0 
1 151 30 0 
1 116 109 0 
1 -40 121 0 
1 -125 -59 0 
1 127 159 0 
1 139 -9 0 
1 151 167 0 
1 -126 -150 0 
1 69 -106 0 
1 41 123 0 
1 -55 39 0 
1 118 14 0 
1 76 -46 0 
1 -13 -101 0 
1 153 -12 0 
1 130 -100 0 
1 -164 108 0 
1 -75 -60 0 
1 159 -127 0 
1 -89 -34 0 
1 -42 163 0 
1 86 -9 0 
1 15 -147 0 
1 -132 122 0 
1 34 -143 0 
1 113 154 0 
1 81 -15 0 
1 19 102 0 
1 -57 65 0 
1 -136 89 0 
1 35 3 0 
1 24 50 0 
1 -26 12 0 
1 -151 -61 0 
1 92 97 0 
1 -98 79 0 
1 30 126 0 
1 110 70 0 
1 -132 15 0 
1 -45 53 0 
1 59 -91 0 
1 81 -65 0 
1 -99 63 0 
1 -41 1 0 
1 -73 42 0 
1 55 -141 0 
1 -2 160 0 
1 21 -1 0 
1 8 -163 0 
1 -154 -4 0 
1 31 146 0 
1 73 -39 0 
1 -155 27 0 
1 -97 126 0 
1 -26 -142 0 
1 -105 88 0 
1 -91 121 0 
1 76 145 0 
1 -153 61 0 
1 108 -98 0 
1 -65 -140 0 
1 -106 119 0 
1 -86 -67 0 
1 12 -64 0 
1 -10 133 0 
1 -103 157 0 
1 -7 -85 0 
1 -29 3 0 
1 -34 -64 0 
1 160 144 0 
1 18 35 0 
1 -119 167 0 
1 166 50 0 
1 -88 -41 0 
1 -141 -43 0 
1 114 -167 0 
1 45 -105 0 
1 145 -36 0 
1 -32 112 0 
1 -132 -51 0 
1 4 110 0 
1 130 2 0 
1 -46 32 0 
1 -3 90 0 
1 160 -146 0 
1 -93 9 0 
1 -166 49 0 
1 -144 72 0 
1 -67 -28 0 
1 -164 -63 0 
1 -107 -23 0 
1 -76 -19 0 
1 113 -127 0 
1 -43 -118 0 
1 -29 142 0 
1 30 136 0 
1 96 90 0 
1 -38 -56 0 
1 -71 72 0 
1 17 -19 0 
1 62 50 0 
1 19 -67 0 
1 80 -92 0 
1 29 -24 0 
1 55 -44 0 
1 21 -78 0 
1 118 64 0 
1 129 -121 0 
1 -148 159 0 
1 93 -96 0 
1 59 31 0 
1 120 -46 0 
1 -68 147 0 
1 -92 58 0 
1 83 97 0 
1 -32 55 0 
1 49 -61 0 
1 42 -62 0 
1 -76 67 0 
1 -54 154 0 
1 -158 130 0 
1 -52 71 0 
1 -132 -115 0 
1 -127 89 0 
1 -133 19 0 
1 -107 57 0 
1 99 -95 0 
1 43 107 0 
1 107 70 0 
1 -133 91 0 
1 -50 -135 0 
1 -148 44 0 
1 31 89 0 
1 -126 -12 0 
1 -12 10 0 
1 69 -141 0 
1 109 35 0 
1 61 -76 0 
1 132 97 0 
1 77 65 0 
1 126 41 0 
1 -55 16 0 
1 108 -156 0 
1 -25 -110 0 
1 -3 -51 0 
1 137 -98 0 
1 15 -80 0 
1 -83 149 0 
1 124 60 0 
1 120 -47 0 
1 -117 121 0 
1 134 -88 0 
1 55 -110 0 
1 -114 58 0 
1 -2 -89 0 
1 -8 -56 0 
1 -123 -122 0 
1 167 24 0 
1 -132 -99 0 
1 -134 -28 0 
1 141 40 0 
1 136 60 0 
1 -103 163 0 
1 -131 -92 0 
1 103 143 0 
1 155 -18 0 
1 -41 18 0 
1 30 -15 0 
1 81 -77 0 
1 48 26 0 
1 -168 -12 0 
1 -63 -112 0 
1 154 -26 0 
1 -25 22 0 
1 79 6 0 
1 -59 -48 0 
1 -118 -2 0 
1 -117 -97 0 
1 129 -144 0 
1 104 23 0 
1 154 83 0 
1 -2 -115 0 
1 146 -137 0 
1 54 143 0 
1 59 -100 0 
1 110 60 0 
1 103 -98 0 
1 113 136 0 
1 155 -35 0 
1 -130 -46 0 
1 -67 -20 0 
1 -53 -50 0 
1 -167 57 0 
1 113 -93 0 
1 122 -159 0 
1 16 -132 0 
1 -19 -8 0 
1 163 46 0 
1 89 148 0 
1 -121 102 0 
1 31 -14 0 
1 85 132 0 
1 -114 121 0 
1 -71 -91 0 
1 -16 4 0 
1 -25 -152 0 
1 116 -112 0 
1 81 -152 0 
1 131 89 0 
1 46 -137 0 
1 130 112 0 
1 -135 74 0 
1 21 102 0 
1 -98 105 0 
1 -53 116 0 
1 120 -142 0 
1 135 -104 0 
1 -118 -68 0 
1 109 150 0 
1 167 -31 0 
1 -104 59 0 
1 -61 -18 0 
1 -113 -5 0 
1 64 -40 0 
1 90 31 0 
1 51 90 0 
1 138 110 0 
1 122 -82 0 
1 -83 77 0 
1 -148 -137 0 
1 169 103 0 
1 79 82 0 
1 -66 -98 0 
1 159 -46 0 
1 143 -32 0 
1 111 131 0 
